Geographic Exponential Decay
20 33 283 49 181 143 135 102 239 168 77 223 58 313 287 188 45 251 205 141 203
p edge 320 624
e 0 282 10.0
e 0 166 4.0
e 0 242 10.0
e 1 258 1.0
e 2 265 10.0
e 2 96 6.0
e 2 97 14.0
e 2 296 13.0
e 2 43 5.0
e 3 55 1.0
e 3 227 4.0
e 4 68 12.0
e 4 139 17.0
e 4 97 1.0
e 4 211 20.0
e 4 318 2.0
e 5 200 2.0
e 6 314 11.0
e 6 312 3.0
e 6 163 1.0
e 7 74 1.0
e 8 65 4.0
e 8 3 3.0
e 9 5 1.0
e 10 74 1.0
e 11 186 18.0
e 12 217 1.0
e 13 247 2.0
e 14 201 1.0
e 15 82 8.0
e 15 305 9.0
e 15 187 8.0
e 16 175 5.0
e 16 274 2.0
e 16 182 12.0
e 17 24 4.0
e 18 21 11.0
e 19 108 1.0
e 20 231 1.0
e 21 152 9.0
e 21 192 1.0
e 22 288 1.0
e 22 131 6.0
e 23 317 2.0
e 24 88 6.0
e 25 287 50.0
e 25 23 1.0
e 26 124 1.0
e 27 25 5.0
e 28 281 2.0
e 28 57 1.0
e 29 276 6.0
e 30 179 2.0
e 31 178 2.0
e 31 11 2.0
e 31 295 11.0
e 32 33 100.0
e 33 206 46.0
e 33 249 13.0
e 33 316 61.0
e 33 241 78.0
e 33 318 23.0
e 33 5 51.0
e 33 42 34.0
e 33 102 94.0
e 33 43 59.0
e 33 34 45.0
e 33 27 10.0
e 33 97 39.0
e 33 180 67.0
e 33 218 29.0
e 33 123 71.0
e 33 247 12.0
e 35 201 1.0
e 35 265 1.0
e 36 227 1.0
e 37 44 11.0
e 38 236 2.0
e 39 200 1.0
e 40 158 1.0
e 41 294 3.0
e 41 146 3.0
e 42 0 1.0
e 42 46 6.0
e 44 132 9.0
e 44 13 3.0
e 45 286 11.0
e 45 289 6.0
e 45 262 97.0
e 45 149 45.0
e 45 307 72.0
e 45 111 57.0
e 45 237 65.0
e 45 297 91.0
e 45 107 32.0
e 45 89 77.0
e 45 136 62.0
e 45 8 1.0
e 45 304 41.0
e 45 247 75.0
e 45 186 4.0
e 45 127 66.0
e 45 274 83.0
e 46 244 1.0
e 47 275 2.0
e 48 110 6.0
e 49 86 12.0
e 49 112 43.0
e 49 176 41.0
e 49 185 29.0
e 49 224 97.0
e 49 0 4.0
e 49 282 29.0
e 49 43 11.0
e 49 221 42.0
e 49 103 62.0
e 49 283 40.0
e 49 125 75.0
e 49 18 19.0
e 49 1 66.0
e 49 44 83.0
e 49 22 74.0
e 49 278 33.0
e 50 120 49.0
e 50 34 1.0
e 50 221 7.0
e 50 173 28.0
e 50 308 9.0
e 50 216 18.0
e 50 171 1.0
e 50 291 30.0
e 50 57 4.0
e 51 210 6.0
e 51 169 4.0
e 52 207 2.0
e 53 163 4.0
e 53 302 6.0
e 54 213 4.0
e 56 118 1.0
e 58 43 53.0
e 58 218 16.0
e 58 103 75.0
e 58 202 63.0
e 58 37 13.0
e 58 270 2.0
e 58 127 23.0
e 58 302 57.0
e 58 227 51.0
e 58 62 91.0
e 58 291 17.0
e 58 14 11.0
e 58 5 90.0
e 58 185 37.0
e 58 0 78.0
e 58 139 54.0
e 58 294 36.0
e 59 297 1.0
e 59 74 3.0
e 60 188 79.0
e 61 222 3.0
e 61 232 6.0
e 63 268 2.0
e 64 301 1.0
e 65 307 1.0
e 66 93 2.0
e 66 38 4.0
e 67 305 2.0
e 67 98 2.0
e 69 236 1.0
e 70 51 6.0
e 71 159 1.0
e 72 139 3.0
e 73 63 2.0
e 75 312 2.0
e 76 227 3.0
e 77 104 52.0
e 77 198 72.0
e 77 305 61.0
e 77 293 13.0
e 77 137 39.0
e 77 221 57.0
e 77 201 62.0
e 77 29 71.0
e 77 64 66.0
e 77 310 60.0
e 77 106 26.0
e 77 113 6.0
e 77 116 52.0
e 77 206 51.0
e 77 222 19.0
e 77 315 50.0
e 77 120 33.0
e 78 273 3.0
e 79 127 2.0
e 80 226 1.0
e 80 0 1.0
e 81 14 1.0
e 83 96 10.0
e 84 85 1.0
e 84 80 1.0
e 87 236 2.0
e 88 17 4.0
e 90 75 3.0
e 91 316 1.0
e 92 158 3.0
e 94 301 8.0
e 94 36 1.0
e 95 145 3.0
e 96 242 1.0
e 98 94 3.0
e 99 256 3.0
e 100 71 3.0
e 100 225 4.0
e 101 130 1.0
e 102 65 27.0
e 102 199 39.0
e 102 230 53.0
e 102 297 12.0
e 102 215 90.0
e 102 92 23.0
e 102 61 82.0
e 102 20 40.0
e 102 132 15.0
e 102 23 6.0
e 102 56 29.0
e 102 116 15.0
e 102 106 90.0
e 102 225 76.0
e 102 257 96.0
e 102 211 62.0
e 104 130 5.0
e 105 254 1.0
e 105 140 3.0
e 109 107 7.0
e 109 140 12.0
e 109 239 25.0
e 110 184 1.0
e 111 102 61.0
e 111 49 14.0
e 111 217 43.0
e 111 235 26.0
e 111 310 4.0
e 111 153 42.0
e 111 74 13.0
e 111 33 84.0
e 112 48 2.0
e 114 230 2.0
e 115 188 99.0
e 117 281 2.0
e 119 227 5.0
e 119 295 1.0
e 120 70 1.0
e 121 75 1.0
e 122 151 1.0
e 126 288 3.0
e 128 28 1.0
e 129 161 3.0
e 129 267 1.0
e 129 193 1.0
e 133 236 8.0
e 133 265 12.0
e 133 248 4.0
e 134 280 4.0
e 135 188 44.0
e 135 301 8.0
e 135 88 66.0
e 135 224 68.0
e 135 207 13.0
e 135 170 17.0
e 135 33 16.0
e 135 231 11.0
e 135 275 28.0
e 135 180 63.0
e 135 82 92.0
e 135 108 55.0
e 135 64 47.0
e 135 165 72.0
e 135 238 75.0
e 135 53 28.0
e 135 282 100.0
e 136 24 2.0
e 138 29 4.0
e 138 207 1.0
e 141 191 50.0
e 141 57 42.0
e 141 269 1.0
e 141 87 82.0
e 141 151 27.0
e 141 223 59.0
e 141 132 37.0
e 141 138 58.0
e 141 183 14.0
e 141 67 86.0
e 141 108 21.0
e 141 164 46.0
e 141 192 100.0
e 141 13 17.0
e 141 268 2.0
e 141 46 99.0
e 141 270 57.0
e 142 45 94.0
e 142 250 3.0
e 143 127 69.0
e 143 28 67.0
e 143 123 77.0
e 143 29 63.0
e 143 305 74.0
e 143 88 7.0
e 143 26 27.0
e 143 212 6.0
e 143 244 73.0
e 143 55 18.0
e 143 220 60.0
e 143 105 6.0
e 143 295 77.0
e 143 224 18.0
e 143 101 68.0
e 143 187 25.0
e 143 82 23.0
e 144 46 30.0
e 144 316 26.0
e 144 13 9.0
e 144 47 22.0
e 144 258 22.0
e 144 51 38.0
e 144 57 10.0
e 144 180 5.0
e 144 136 33.0
e 145 12 4.0
e 145 34 2.0
e 146 103 1.0
e 147 258 1.0
e 148 267 2.0
e 149 251 3.0
e 150 118 1.0
e 152 125 5.0
e 154 1 1.0
e 155 268 1.0
e 156 263 4.0
e 156 150 1.0
e 157 313 9.0
e 158 233 4.0
e 160 175 1.0
e 160 161 17.0
e 160 105 24.0
e 160 297 3.0
e 160 102 34.0
e 162 88 11.0
e 162 293 1.0
e 162 68 8.0
e 165 254 1.0
e 166 154 4.0
e 167 223 53.0
e 167 37 3.0
e 168 284 44.0
e 168 36 19.0
e 168 26 88.0
e 168 30 41.0
e 168 190 6.0
e 168 69 99.0
e 168 200 16.0
e 168 121 12.0
e 168 315 39.0
e 168 72 22.0
e 168 94 99.0
e 168 199 9.0
e 168 16 83.0
e 168 161 50.0
e 168 115 78.0
e 168 44 40.0
e 168 193 15.0
e 172 167 1.0
e 174 107 1.0
e 176 184 4.0
e 177 141 5.0
e 177 115 24.0
e 177 109 8.0
e 177 288 22.0
e 177 169 39.0
e 177 279 11.0
e 177 225 13.0
e 177 89 15.0
e 177 23 26.0
e 179 154 4.0
e 181 244 49.0
e 181 101 49.0
e 181 213 74.0
e 181 285 84.0
e 181 37 56.0
e 181 75 36.0
e 181 185 11.0
e 181 251 48.0
e 181 268 20.0
e 181 187 87.0
e 181 132 10.0
e 181 153 16.0
e 181 76 81.0
e 181 314 5.0
e 181 3 57.0
e 181 119 77.0
e 181 315 91.0
e 182 297 1.0
e 186 121 24.0
e 186 313 24.0
e 186 286 11.0
e 188 205 47.0
e 188 153 45.0
e 188 260 69.0
e 188 208 14.0
e 188 303 94.0
e 188 175 80.0
e 188 295 83.0
e 188 67 3.0
e 188 189 68.0
e 188 30 62.0
e 188 108 15.0
e 188 41 48.0
e 188 283 48.0
e 188 92 97.0
e 190 253 2.0
e 190 126 17.0
e 190 15 16.0
e 190 217 1.0
e 191 34 5.0
e 194 189 2.0
e 195 259 1.0
e 196 173 1.0
e 197 245 3.0
e 197 269 31.0
e 197 86 26.0
e 197 114 4.0
e 197 136 2.0
e 197 128 42.0
e 197 105 30.0
e 197 52 34.0
e 197 132 15.0
e 202 6 4.0
e 203 91 65.0
e 203 81 55.0
e 203 304 21.0
e 203 161 33.0
e 203 109 93.0
e 203 162 18.0
e 203 19 2.0
e 203 86 68.0
e 203 121 39.0
e 203 22 5.0
e 203 289 25.0
e 203 235 94.0
e 203 1 13.0
e 203 166 50.0
e 203 205 13.0
e 203 70 65.0
e 203 47 75.0
e 204 184 3.0
e 204 96 2.0
e 204 120 11.0
e 205 273 5.0
e 205 194 28.0
e 205 38 10.0
e 205 14 18.0
e 205 136 63.0
e 205 263 83.0
e 205 176 58.0
e 205 52 79.0
e 205 245 11.0
e 205 24 99.0
e 205 3 56.0
e 205 135 9.0
e 205 31 53.0
e 205 177 90.0
e 205 231 24.0
e 206 160 6.0
e 209 120 4.0
e 209 99 12.0
e 209 165 3.0
e 210 113 8.0
e 210 25 3.0
e 211 300 3.0
e 212 188 99.0
e 212 214 1.0
e 216 200 5.0
e 219 45 2.0
e 219 179 4.0
e 220 170 1.0
e 220 237 1.0
e 223 128 65.0
e 223 7 88.0
e 223 151 67.0
e 223 285 25.0
e 223 204 68.0
e 223 207 48.0
e 223 239 37.0
e 223 188 56.0
e 223 89 64.0
e 223 49 18.0
e 223 288 3.0
e 223 166 64.0
e 223 147 67.0
e 223 62 100.0
e 223 286 58.0
e 228 107 1.0
e 229 160 5.0
e 229 54 1.0
e 232 274 7.0
e 232 290 5.0
e 234 4 24.0
e 234 278 3.0
e 238 117 3.0
e 239 35 60.0
e 239 6 33.0
e 239 38 54.0
e 239 299 6.0
e 239 122 87.0
e 239 162 70.0
e 239 144 79.0
e 239 304 35.0
e 239 110 14.0
e 239 2 94.0
e 239 4 89.0
e 239 209 8.0
e 239 248 42.0
e 239 28 36.0
e 239 155 51.0
e 240 313 56.0
e 240 318 3.0
e 243 296 5.0
e 243 308 3.0
e 246 202 1.0
e 251 68 96.0
e 251 106 2.0
e 251 308 95.0
e 251 256 86.0
e 251 89 67.0
e 251 291 30.0
e 251 196 52.0
e 251 208 43.0
e 251 24 72.0
e 251 201 49.0
e 251 233 13.0
e 251 213 1.0
e 251 67 21.0
e 251 278 79.0
e 251 25 5.0
e 252 12 1.0
e 255 194 5.0
e 255 120 10.0
e 261 244 5.0
e 264 179 5.0
e 264 222 1.0
e 266 35 5.0
e 266 122 5.0
e 271 259 12.0
e 271 166 4.0
e 271 6 2.0
e 272 57 14.0
e 272 180 1.0
e 272 2 1.0
e 272 99 6.0
e 272 292 24.0
e 276 128 1.0
e 277 244 1.0
e 280 224 5.0
e 283 213 47.0
e 283 271 30.0
e 283 203 90.0
e 283 53 49.0
e 283 194 71.0
e 283 186 20.0
e 283 243 93.0
e 283 109 49.0
e 283 276 53.0
e 283 44 34.0
e 283 50 32.0
e 283 78 96.0
e 283 4 3.0
e 283 279 73.0
e 283 47 3.0
e 284 280 4.0
e 287 294 63.0
e 287 251 2.0
e 287 316 96.0
e 287 15 25.0
e 287 235 22.0
e 287 209 32.0
e 287 231 21.0
e 287 26 83.0
e 287 40 91.0
e 287 239 42.0
e 287 254 42.0
e 287 203 13.0
e 287 233 29.0
e 287 176 80.0
e 287 289 81.0
e 287 202 34.0
e 290 233 2.0
e 290 211 4.0
e 292 65 18.0
e 292 77 90.0
e 292 71 16.0
e 292 240 8.0
e 298 2 23.0
e 302 154 1.0
e 304 283 64.0
e 304 286 5.0
e 306 313 65.0
e 309 285 1.0
e 311 71 2.0
e 313 250 86.0
e 313 192 79.0
e 313 249 89.0
e 313 315 78.0
e 313 248 75.0
e 313 191 66.0
e 313 293 9.0
e 313 208 45.0
e 313 216 59.0
e 313 56 84.0
e 313 204 64.0
e 313 174 73.0
e 313 125 26.0
e 319 147 3.0
e 319 184 4.0
e 319 199 10.0
